Maximize
  - 15 x0 + 46 x1 - 42 x2 + 0 x3 + 33 x4 - 30 x5 + 19 x6 - 20 x7 + 26 x8
   + 27 x9 + 7 x10 + 4 x11 + 0 x12 + 0 x13 - 15 x14 - 31 x15 + 0 x16
   + 0 x17 + 0 x18 - 31 x19 + 49 x20 - 9 x21 + 0 x22 + 46 x23 - 34 x24
   + 0 x25 + 4 x26 + 0 x27 + 19 x28 - 9 x29 + 0 x30 + 42 x31 + 49 x32
   + 0 x33 + 0 x34 + 46 x35 - 7 x36 + 23 x37 + 34 x38 + 45 x39 + [
   - 4 x0 ^2 - 12 x0 * x1 - 28 x0 * x2 + 96 x0 * x3 - 16 x0 * x5
   + 58 x0 * x6 + 98 x0 * x7 - 88 x0 * x8 - 50 x0 * x9 - 2 x0 * x10
   - 58 x0 * x14 - 90 x0 * x15 + 84 x0 * x16 + 18 x0 * x17 - 40 x0 * x18
   + 44 x0 * x19 - 54 x0 * x20 + 20 x0 * x22 + 72 x0 * x23 - 64 x0 * x24
   + 96 x0 * x25 - 60 x0 * x26 - 14 x0 * x27 + 60 x0 * x30 - 42 x0 * x31
   + 10 x0 * x32 + 74 x0 * x34 + 58 x0 * x36 + 44 x0 * x37 + 44 x0 * x39
   - 7 x1 ^2 - 48 x1 * x4 + 40 x1 * x6 + 80 x1 * x8 + 32 x1 * x9
   + 54 x1 * x11 + 80 x1 * x12 - 62 x1 * x13 - 32 x1 * x14 - 66 x1 * x16
   - 10 x1 * x18 + 34 x1 * x19 + 72 x1 * x20 - 2 x1 * x21 + 42 x1 * x22
   - 20 x1 * x23 + 8 x1 * x25 - 78 x1 * x28 + 34 x1 * x29 - 12 x1 * x30
   + 34 x1 * x31 - 46 x1 * x33 - 24 x1 * x34 - 74 x1 * x35 + 72 x1 * x37
   - 74 x1 * x39 - 30 x2 ^2 + 10 x2 * x4 - 32 x2 * x5 + 70 x2 * x6
   + 82 x2 * x7 - 32 x2 * x8 + 96 x2 * x9 + 12 x2 * x10 - 84 x2 * x12
   + 44 x2 * x13 - 60 x2 * x14 - 90 x2 * x16 - 82 x2 * x17 + 20 x2 * x18
   - 72 x2 * x22 - 86 x2 * x25 + 60 x2 * x26 - 4 x2 * x28 + 26 x2 * x29
   - 8 x2 * x30 - 32 x2 * x32 + 12 x2 * x33 + 78 x2 * x35 + 11 x3 ^2
   + 66 x3 * x4 - 92 x3 * x5 - 58 x3 * x6 - 96 x3 * x7 + 30 x3 * x8
   + 38 x3 * x10 - 56 x3 * x11 - 52 x3 * x12 + 86 x3 * x13 - 22 x3 * x14
   - 98 x3 * x15 + 74 x3 * x16 + 96 x3 * x18 + 34 x3 * x19 + 58 x3 * x20
   - 8 x3 * x21 + 16 x3 * x22 + 68 x3 * x24 + 10 x3 * x27 + 82 x3 * x28
   - 94 x3 * x29 + 6 x3 * x30 + 2 x3 * x32 + 94 x3 * x34 + 26 x3 * x35
   - 46 x3 * x36 + 62 x3 * x38 + 22 x3 * x39 - 44 x4 * x5 - 16 x4 * x6
   - 76 x4 * x8 - 48 x4 * x9 + 10 x4 * x10 + 74 x4 * x14 + 18 x4 * x16
   - 18 x4 * x19 + 34 x4 * x20 - 62 x4 * x23 - 70 x4 * x24 - 10 x4 * x25
   + 94 x4 * x26 + 82 x4 * x27 + 86 x4 * x28 + 74 x4 * x29 + 96 x4 * x30
   + 94 x4 * x32 - 78 x4 * x33 - 12 x4 * x35 + 38 x4 * x38 + 58 x4 * x39
   + 9 x5 ^2 - 4 x5 * x7 + 4 x5 * x8 + 44 x5 * x9 + 98 x5 * x10
   + 28 x5 * x11 + 12 x5 * x13 + 58 x5 * x14 - 4 x5 * x15 + 26 x5 * x18
   + 36 x5 * x19 - 38 x5 * x20 + 76 x5 * x23 - 90 x5 * x25 + 98 x5 * x26
   - 82 x5 * x27 + 34 x5 * x28 - 66 x5 * x29 + 4 x5 * x30 - 40 x5 * x31
   - 12 x5 * x33 + 72 x5 * x34 - 50 x5 * x35 - 16 x5 * x36 - 80 x5 * x37
   - 24 x5 * x38 - 36 x5 * x39 - 96 x6 * x7 + 70 x6 * x8 - 16 x6 * x10
   + 40 x6 * x14 + 86 x6 * x15 + 36 x6 * x16 - 38 x6 * x19 - 12 x6 * x20
   - 82 x6 * x21 + 50 x6 * x22 + 4 x6 * x25 - 46 x6 * x26 + 88 x6 * x27
   - 88 x6 * x28 + 80 x6 * x31 + 96 x6 * x34 + 54 x6 * x35 - 16 x6 * x38
   - 52 x6 * x39 + 16 x7 ^2 - 84 x7 * x9 - 70 x7 * x11 + 58 x7 * x13
   + 72 x7 * x15 + 20 x7 * x16 - 62 x7 * x17 + 22 x7 * x18 + 60 x7 * x19
   + 42 x7 * x21 - 70 x7 * x23 + 80 x7 * x24 + 44 x7 * x26 + 54 x7 * x27
   + 80 x7 * x28 - 16 x7 * x29 + 62 x7 * x30 + 62 x7 * x31 + 26 x7 * x33
   - 28 x7 * x37 + 66 x7 * x38 + 21 x8 ^2 + 92 x8 * x11 - 34 x8 * x12
   + 54 x8 * x13 - 62 x8 * x14 - 32 x8 * x18 + 56 x8 * x19 - 36 x8 * x22
   + 68 x8 * x23 - 38 x8 * x24 - 22 x8 * x25 + 92 x8 * x29 + 58 x8 * x31
   + 56 x8 * x32 - 16 x8 * x33 - 88 x8 * x35 + 2 x8 * x36 - 98 x8 * x37
   + 13 x9 ^2 - 34 x9 * x10 + 28 x9 * x11 - 82 x9 * x17 + 28 x9 * x18
   + 6 x9 * x22 - 72 x9 * x23 + 68 x9 * x25 - 86 x9 * x26 - 22 x9 * x27
   - 60 x9 * x28 + 88 x9 * x29 - 88 x9 * x30 + 54 x9 * x33 + 24 x9 * x34
   + 4 x9 * x35 + 14 x9 * x36 - 16 x9 * x37 + 78 x9 * x38 - 84 x9 * x39
   + 64 x10 * x14 + 98 x10 * x17 - 10 x10 * x18 + 2 x10 * x19 + 6 x10 * x21
   + 2 x10 * x23 - 90 x10 * x25 + 76 x10 * x26 + 88 x10 * x27
   - 66 x10 * x28 - 42 x10 * x29 + 22 x10 * x30 + 38 x10 * x31
   + 82 x10 * x34 - 88 x10 * x35 + 96 x10 * x36 + 18 x10 * x37
   + 26 x10 * x38 - 56 x10 * x39 - 43 x11 ^2 + 38 x11 * x13 - 78 x11 * x14
   - 76 x11 * x15 - 98 x11 * x16 + 20 x11 * x17 + 80 x11 * x19
   + 46 x11 * x20 - 64 x11 * x21 + 18 x11 * x22 - 92 x11 * x24
   - 34 x11 * x26 - 38 x11 * x29 - 52 x11 * x30 - 10 x11 * x32
   + 20 x11 * x35 - 52 x11 * x37 - 58 x12 * x13 - 94 x12 * x14
   - 36 x12 * x15 + 4 x12 * x16 - 28 x12 * x18 - 42 x12 * x19 + 4 x12 * x20
   - 82 x12 * x21 - 98 x12 * x22 - 24 x12 * x23 - 74 x12 * x24
   + 38 x12 * x28 + 30 x12 * x31 - 86 x12 * x32 + 80 x12 * x33
   + 4 x12 * x34 - 66 x12 * x35 - 64 x12 * x36 - 48 x12 * x38 + 39 x13 ^2
   - 40 x13 * x14 + 6 x13 * x17 + 96 x13 * x18 - 38 x13 * x20
   - 52 x13 * x22 - 70 x13 * x24 - 66 x13 * x25 + 62 x13 * x26
   + 64 x13 * x27 - 86 x13 * x28 - 52 x13 * x31 + 8 x13 * x32
   + 42 x13 * x33 - 34 x13 * x34 + 70 x13 * x36 + 80 x13 * x37
   + 72 x13 * x38 + 14 x13 * x39 - 78 x14 * x19 - 42 x14 * x20
   + 58 x14 * x21 + 4 x14 * x22 - 36 x14 * x23 + 82 x14 * x25
   - 42 x14 * x26 - 46 x14 * x29 + 72 x14 * x30 - 84 x14 * x32
   + 94 x14 * x33 + 50 x14 * x34 - 58 x14 * x35 - 30 x14 * x37
   - 76 x14 * x38 - 72 x15 * x16 + 96 x15 * x18 - 36 x15 * x22
   - 64 x15 * x23 - 26 x15 * x25 - 80 x15 * x27 - 92 x15 * x34
   - 18 x15 * x35 - 92 x15 * x37 + 80 x15 * x38 + 36 x16 ^2 + 54 x16 * x18
   + 88 x16 * x19 - 80 x16 * x20 + 24 x16 * x21 + 66 x16 * x26
   - 2 x16 * x28 - 18 x16 * x31 + 90 x16 * x32 + 10 x16 * x33 - 39 x17 ^2
   - 64 x17 * x18 + 36 x17 * x20 + 44 x17 * x21 + 28 x17 * x22
   - 22 x17 * x23 - 22 x17 * x25 + 22 x17 * x26 + 32 x17 * x28
   + 28 x17 * x32 + 70 x17 * x35 + 82 x17 * x36 - 44 x17 * x37
   - 18 x17 * x38 + 58 x17 * x39 + 5 x18 ^2 + 20 x18 * x19 - 82 x18 * x20
   + 34 x18 * x21 - 68 x18 * x22 - 28 x18 * x28 - 52 x18 * x29
   + 28 x18 * x30 + 80 x18 * x31 + 98 x18 * x34 + 36 x18 * x36
   + 86 x18 * x39 - 10 x19 ^2 - 62 x19 * x20 + 72 x19 * x21 + 88 x19 * x22
   - 82 x19 * x23 + 64 x19 * x24 + 86 x19 * x25 - 82 x19 * x29
   + 26 x19 * x30 - 6 x19 * x32 - 88 x19 * x34 - 26 x19 * x35
   + 24 x19 * x36 + 78 x19 * x39 - 32 x20 ^2 - 42 x20 * x21 - 36 x20 * x22
   + 80 x20 * x23 + 2 x20 * x24 + 2 x20 * x25 + 28 x20 * x26 + 28 x20 * x27
   - 8 x20 * x28 + 20 x20 * x30 - 20 x20 * x32 - 16 x20 * x33
   - 50 x20 * x34 - 42 x20 * x35 + 56 x20 * x37 - 28 x20 * x38 - 32 x21 ^2
   - 78 x21 * x22 + 14 x21 * x24 - 68 x21 * x27 + 44 x21 * x28
   - 32 x21 * x29 - 84 x21 * x31 + 22 x21 * x32 + 76 x21 * x33
   - 62 x21 * x37 + 86 x21 * x38 + 8 x22 ^2 + 26 x22 * x23 - 74 x22 * x24
   + 72 x22 * x26 - 78 x22 * x27 - 4 x22 * x28 + 70 x22 * x30
   - 52 x22 * x31 + 98 x22 * x33 + 64 x22 * x35 - 24 x22 * x38
   - 52 x22 * x39 + 84 x23 * x24 - 76 x23 * x25 + 6 x23 * x26
   + 84 x23 * x27 - 70 x23 * x29 + 52 x23 * x31 + 40 x23 * x32
   - 34 x23 * x34 + 2 x23 * x38 + 15 x24 ^2 - 42 x24 * x25 - 66 x24 * x27
   + 68 x24 * x29 - 88 x24 * x31 + 80 x24 * x32 + 52 x24 * x33
   - 28 x24 * x34 + 98 x24 * x36 + 68 x24 * x37 + 22 x25 ^2 - 54 x25 * x27
   - 60 x25 * x28 - 2 x25 * x29 - 14 x25 * x30 - 4 x25 * x31 - 30 x25 * x33
   - 30 x25 * x34 - 12 x26 * x29 + 2 x26 * x30 + 68 x26 * x31
   - 92 x26 * x35 - 88 x26 * x37 + 42 x26 * x38 + 36 x27 ^2 + 4 x27 * x28
   + 84 x27 * x30 - 68 x27 * x32 - 32 x27 * x33 + 26 x27 * x34
   + 20 x27 * x35 + 36 x27 * x36 + 58 x27 * x37 + 82 x27 * x38 + 34 x28 ^2
   - 84 x28 * x29 + 84 x28 * x30 + 40 x28 * x31 - 94 x28 * x32
   - 12 x28 * x35 - 92 x28 * x37 + 94 x28 * x38 - 56 x28 * x39 - 47 x29 ^2
   - 40 x29 * x32 + 6 x29 * x33 - 4 x29 * x34 - 2 x29 * x36 + 56 x29 * x37
   + 40 x29 * x38 + 42 x29 * x39 - 45 x30 ^2 - 34 x30 * x31 + 18 x30 * x33
   + 14 x30 * x39 - 19 x31 ^2 - 44 x31 * x32 + 34 x31 * x33 + 26 x31 * x34
   - 28 x31 * x35 + 46 x31 * x36 + 52 x31 * x37 + 36 x31 * x38
   + 2 x31 * x39 - 29 x32 ^2 + 86 x32 * x35 - 28 x32 * x37 - 48 x33 * x34
   + 64 x33 * x36 - 48 x33 * x37 + 32 x34 ^2 - 66 x34 * x35 - 22 x34 * x36
   + 22 x34 * x37 + 82 x34 * x39 + 12 x35 * x38 + 41 x36 ^2 + 56 x36 * x37
   + 26 x36 * x38 + 16 x37 ^2 - 24 x37 * x38 - 46 x38 ^2 + 38 x39 ^2 ] / 2 
Subject To
Bounds
 x0 <= 1
 x1 <= 1
 x2 <= 1
 x3 <= 1
 x4 <= 1
 x5 <= 1
 x6 <= 1
 x7 <= 1
 x8 <= 1
 x9 <= 1
 x10 <= 1
 x11 <= 1
 x12 <= 1
 x13 <= 1
 x14 <= 1
 x15 <= 1
 x16 <= 1
 x17 <= 1
 x18 <= 1
 x19 <= 1
 x20 <= 1
 x21 <= 1
 x22 <= 1
 x23 <= 1
 x24 <= 1
 x25 <= 1
 x26 <= 1
 x27 <= 1
 x28 <= 1
 x29 <= 1
 x30 <= 1
 x31 <= 1
 x32 <= 1
 x33 <= 1
 x34 <= 1
 x35 <= 1
 x36 <= 1
 x37 <= 1
 x38 <= 1
 x39 <= 1
End
